c This is QMaxSAT 2017 based on 14.07
c This is Glucose 3.0
c This is MiniSat 2.2.0
c WARNING: for repeatability, setting FPU to use double precision
c card = mrwto, comp = 0, pmodel = 0, narr = 4, mct = 29, verb = 0
cr firstCPXsol 0 0 0
c top = 167313
c |  Number of variables:    3834800                                          |
c |  Number of clauses:      274992852                                        |
c |  Weight of hard clauses: 167313                                           |
c |  Number of soft clauses: 3248                                             |
c |  Number of unit soft clauses: 3248                                        |
c |  Maximum Cardinality (by unit): 669248       (669248      )               |
c last restart ## conflicts  :  491 386974 
o 1713 | cpuTime 119.293 s
c Sum of weights = 167312
c A number of soft clauses remained = 812
c MRWTO encoding for Pseudo-Boolean Constraints
c sizeMax=1713
c No.0 Divisor=12	generated by pow1
c No.1 Divisor=12	generated by pow1
c No.2 Divisor=12	generated by pow1
c p0= 12	p1= 12	p2= 12	
c number of digits = 4
c linkingVar[0].size = 12, linkingVar[1].size = 12, linkingVar[2].size = 12, linkingVar[3].size = 1, 
c Pseudo-Boolean Constraints: 19135 variables and 188610 clauses
c Sum of weights = 167312
c A number of soft clauses remained = 812
c MRWTO encoding for Pseudo-Boolean Constraints
c sizeMax=1713
c No.0 Divisor=12	generated by pow1
c No.1 Divisor=12	generated by pow1
c No.2 Divisor=12	generated by pow1
c p0= 12	p1= 12	p2= 12	
c number of digits = 4
c linkingVar[0].size = 12, linkingVar[1].size = 12, linkingVar[2].size = 12, linkingVar[3].size = 1, 
c Pseudo-Boolean Constraints: 19135 variables and 188610 clauses
c Sum of weights = 167312
c A number of soft clauses remained = 812
c MRWTO encoding for Pseudo-Boolean Constraints
c sizeMax=1713
c No.0 Divisor=12	generated by pow1
c No.1 Divisor=12	generated by pow1
c No.2 Divisor=12	generated by pow1
c p0= 12	p1= 12	p2= 12	
c number of digits = 4
c linkingVar[0].size = 12, linkingVar[1].size = 12, linkingVar[2].size = 12, linkingVar[3].size = 1, 
c Pseudo-Boolean Constraints: 19135 variables and 188610 clauses
c Sum of weights = 167312
c A number of soft clauses remained = 812
c MRWTO encoding for Pseudo-Boolean Constraints
c sizeMax=1713
c No.0 Divisor=12	generated by pow1
c No.1 Divisor=12	generated by pow1
c No.2 Divisor=12	generated by pow1
c p0= 12	p1= 12	p2= 12	
c number of digits = 4
c linkingVar[0].size = 12, linkingVar[1].size = 12, linkingVar[2].size = 12, linkingVar[3].size = 1, 
c Pseudo-Boolean Constraints: 19135 variables and 188610 clauses
c last restart ## conflicts  :  74 389984 
o 1543 | cpuTime 121.226 s
s UNKNOWN
c Search is stopped by a limit (maybe time-limit)
cr positiVarArr: [ | 9@1(1->9) | 30@1(2->1) | 194@1(7->20) | 253@1(9->21) | 529@1(19->7) | 580@1(20->29) | 606@1(21->26) | 744@1(26->19) | 814@1(29->2) | 847@2(1->6) | 900@2(3->1) | 1002@2(6->16) | 1206@2(13->17) | 1301@2(16->25) | 1308@2(17->3) | 1564@2(25->27) | 1608@2(27->13) | 1710@3(1->28) | 1806@3(5->8) | 1903@3(8->18) | 1948@3(10->5) | 2025@3(12->24) | 2176@3(18->1) | 2359@3(24->10) | 2477@3(28->12) | 2545@4(1->22) | 2621@4(4->11) | 2814@4(11->1) | 2915@4(14->15) | 2933@4(15->4) | 3155@4(22->23) | 3175@4(23->14) | ]
cr the 1-th chain: [ 1->9->21->26->19->7->20->29->2->1 ] (#non-depot=8) {#cumul.=9}
cr the 2-th chain: [ 1->6->16->25->27->13->17->3->1 ] (#non-depot=7) {#cumul.=16}
cr the 3-th chain: [ 1->28->12->24->10->5->8->18->1 ] (#non-depot=7) {#cumul.=23}
cr the 4-th chain: [ 1->22->23->14->15->4->11->1 ] (#non-depot=6) {#cumul.=29}
c Latest Answer = 0 by 2 loops
c restarts              : 3934
c conflicts             : 612948         (170 /sec)
c decisions             : 10684150       (0.00 % random) (2971 /sec)
c propagations          : 14200319571    (3948770 /sec)
c conflict literals     : 72167224       (13.36 % deleted)
c Memory used           : 19595.00 MB
c CPU time              : 3596.14 s
